Solver command line: ['C:\\Program Files\\IBM\\ILOG\\CPLEX_Studio2211\\cplex\\bin\\x64_win64\\cplex.exe']


Welcome to IBM(R) ILOG(R) CPLEX(R) Interactive Optimizer 22.1.1.0
  with Simplex, Mixed Integer & Barrier Optimizers
5725-A06 5725-A29 5724-Y48 5724-Y49 5724-Y54 5724-Y55 5655-Y21
Copyright IBM Corp. 1988, 2022.  All Rights Reserved.

Type 'help' for a list of available commands.
Type 'help' followed by a command name for more
information on commands.

CPLEX> Logfile 'cplex.log' closed.
Logfile 'C:\Users\wangy\Documents\GitHub\re_optimization\result_site_specific\tmphclqiij0.cplex.log' open.
CPLEX> Problem 'C:\Users\wangy\Documents\GitHub\re_optimization\result_site_specific\tmpbk5oba8w.pyomo.lp' read.
Read time = 0.23 sec. (7.29 ticks)
CPLEX> Problem name         : C:\Users\wangy\Documents\GitHub\re_optimization\result_site_specific\tmpbk5oba8w.pyomo.lp
Objective sense      : Minimize
Variables            :   52617  [Nneg: 27764,  Free: 8786,  Binary: 7,
                                 Other: 16060]
Objective nonzeros   :      14
Linear constraints   :   73052  [Less: 39437,  Greater: 3,  Equal: 33612]
  Nonzeros           :  181253
  RHS nonzeros       :    4056

Variables            : Min LB: 0.000000         Max UB: 1.000000       
Objective nonzeros   : Min   : 1.000000         Max   : 1.000000       
Linear constraints   :
  Nonzeros           : Min   : 0.0007624837     Max   : 100000.0       
  RHS nonzeros       : Min   : 0.02200000       Max   : 1000.000       
CPLEX> Version identifier: 22.1.1.0 | 2022-11-27 | 9160aff4d
Tried aggregator 3 times.
MIP Presolve eliminated 47710 rows and 28731 columns.
Aggregator did 7356 substitutions.
Reduced MIP has 17986 rows, 16530 columns, and 52168 nonzeros.
Reduced MIP has 5 binaries, 0 generals, 0 SOSs, and 0 indicators.
Presolve time = 0.12 sec. (152.36 ticks)
Found incumbent of value 170638.446000 after 0.16 sec. (177.67 ticks)
Probing time = 0.02 sec. (1.09 ticks)
Tried aggregator 1 time.
Detecting symmetries...
Reduced MIP has 17986 rows, 16530 columns, and 52168 nonzeros.
Reduced MIP has 5 binaries, 0 generals, 0 SOSs, and 0 indicators.
Presolve time = 0.03 sec. (30.97 ticks)
Probing time = 0.01 sec. (0.98 ticks)
MIP emphasis: balance optimality and feasibility.
MIP search method: dynamic search.
Parallel mode: deterministic, using up to 16 threads.
Root relaxation solution time = 0.64 sec. (519.07 ticks)

        Nodes                                         Cuts/
   Node  Left     Objective  IInf  Best Integer    Best Bound    ItCnt     Gap

*     0+    0                       170638.4460    -8263.4673           104.84%
*     0+    0                         5040.5195    -8263.4673           263.94%
      0     0     5036.0369     1     5040.5195     5036.0369       55    0.09%
*     0+    0                         5040.3997     5036.0369             0.09%
      0     0        cutoff           5040.3997                     83    0.00%
Elapsed time = 1.02 sec. (837.09 ticks, tree = 0.01 MB, solutions = 3)

Root node processing (before b&c):
  Real time             =    1.02 sec. (839.59 ticks)
Parallel b&c, 16 threads:
  Real time             =    0.00 sec. (0.00 ticks)
  Sync time (average)   =    0.00 sec.
  Wait time (average)   =    0.00 sec.
                          ------------
Total (root+branch&cut) =    1.02 sec. (839.59 ticks)

Solution pool: 3 solutions saved.

MIP - Integer optimal solution:  Objective =  5.0403996801e+03
Solution time =    1.03 sec.  Iterations = 83  Nodes = 0
Deterministic time = 839.74 ticks  (814.49 ticks/sec)

CPLEX> Incumbent solution written to file 'C:\Users\wangy\Documents\GitHub\re_optimization\result_site_specific\tmpc00ucyw7.cplex.sol'.
CPLEX> 
